Ba2 Cd4
1.0
   4.8657701700000002   -0.0000000100000000    2.0873999799999998
   2.3561820199999999    6.0211044300000003    1.2224950200000000
   0.0578287900000000    0.0001708600000000    6.5800041100000000
Ba Cd
2 4
direct
   0.5486700500000000    0.7013299500000000    0.2013299500000000 Ba
   0.4513299500000000    0.2986700500000000    0.7986700500000000 Ba
   0.8359354200000000    0.7265250400000001    0.6016061300000000 Cd
   0.1640645800000000    0.2734749600000000    0.3983938700000000 Cd
   0.8359354200000000    0.1016061300000000    0.2265250400000000 Cd
   0.1640645800000000    0.8983938700000000    0.7734749600000000 Cd
